p tdp 20 40
1 11
1 12
1 18
1 19
2 7
2 12
2 15
2 16
3 4
3 8
3 10
3 15
3 19
4 15
4 16
4 17
4 19
4 20
5 9
5 10
5 11
5 18
6 12
6 19
6 20
7 10
7 20
8 18
8 19
9 16
9 17
10 12
11 16
11 17
12 18
13 18
13 19
14 18
16 17
16 19
